11625 20375 1450
16265 17735 1747
14787 19213 1758
17564 16436 1656
17399 15601 1689
14782 18218 1799
17775 16225 1604
17811 16189 1592
18919 13081 1429
14122 18878 1773
19048 11952 1328
18232 14768 1618
16582 17418 1741
15181 18819 1756
16795 16205 1728
15299 17701 1794
18553 14447 1571
18844 14156 1421
19119 10881 1245
14108 19892 1644
13028 19972 1688
14300 19700 1718
12691 20309 1557
17913 16087 1535
14171 19829 1683
18835 14165 1470
